(set-info :source |printed by MathSAT|)
(declare-fun call_rtp.ite15 () Int)
(declare-fun call_rtp.ite46 () Int)
(declare-fun call_rtp.ite21 () Int)
(declare-fun call_rtp._X3_ () Int)
(declare-fun call_rtp.ite3 () Int)
(declare-fun param_e05 () Bool)
(declare-fun param_e08 () Bool)
(declare-fun call_rtp._X1_ () Int)
(declare-fun call_rtp.flby8 () Int)
(declare-fun call_rtp.ite32 () Int)
(declare-fun call_rtp.ite8 () Int)
(declare-fun call_rtp.flby9 () Int)
(declare-fun param_e04 () Bool)
(declare-fun call_rtp._X5_ () Int)
(declare-fun call_rtp._X8_ () Int)
(declare-fun call_rtp.ite19 () Int)
(declare-fun call_rtp.ite25 () Int)
(declare-fun call_rtp.ite13 () Int)
(declare-fun _R1_ () Bool)
(declare-fun call_rtp.ite16 () Int)
(declare-fun call_rtp.flby () Int)
(declare-fun call_rtp.ite34 () Int)
(declare-fun call_rtp.ite10 () Int)
(declare-fun call_Sofar.flby () Bool)
(declare-fun call_rtp.ite28 () Int)
(declare-fun _X7_ () Int)
(declare-fun call_rtp.ite35 () Int)
(declare-fun param_e12 () Bool)
(declare-fun call_rtp.ite36 () Int)
(declare-fun call_rtp.ite43 () Int)
(declare-fun call_rtp._X2_ () Int)
(declare-fun env () Bool)
(declare-fun _R3_ () Bool)
(declare-fun call_excludes12.excludes () Bool)
(declare-fun call_rtp.ite26 () Int)
(declare-fun call_rtp.ite48 () Int)
(declare-fun call_rtp.ite7 () Int)
(declare-fun call_rtp._X4_ () Int)
(declare-fun call_Sofar.Sofar () Bool)
(declare-fun param_e06 () Bool)
(declare-fun call_rtp.ite18 () Int)
(declare-fun _R2_ () Bool)
(declare-fun param_e01 () Bool)
(declare-fun call_rtp.ite42 () Int)
(declare-fun call_rtp._X7_ () Int)
(declare-fun call_rtp.ite44 () Int)
(declare-fun call_rtp.flby7 () Int)
(declare-fun call_rtp.ite31 () Int)
(declare-fun call_rtp.ite4 () Int)
(declare-fun _X4_ () Int)
(declare-fun call_rtp.flby2 () Int)
(declare-fun call_rtp.ite30 () Int)
(declare-fun _X2_ () Int)
(declare-fun flby () Bool)
(declare-fun call_rtp.flby3 () Int)
(declare-fun _X6_ () Int)
(declare-fun param_e07 () Bool)
(declare-fun call_rtp.ite5 () Int)
(declare-fun call_rtp.ite41 () Int)
(declare-fun param_e11 () Bool)
(declare-fun param_e09 () Bool)
(declare-fun call_rtp.flby6 () Int)
(declare-fun erreur () Bool)
(declare-fun call_rtp.ite20 () Int)
(declare-fun call_rtp.flby4 () Int)
(declare-fun _X9_ () Int)
(declare-fun call_rtp.flby5 () Int)
(declare-fun param_e02 () Bool)
(declare-fun _R4_ () Bool)
(declare-fun flby2 () Bool)
(declare-fun call_rtp.ite29 () Int)
(declare-fun call_rtp.ite () Bool)
(declare-fun call_rtp.ite11 () Int)
(declare-fun call_rtp.ite33 () Int)
(declare-fun call_rtp._X6_ () Int)
(declare-fun call_rtp.ite12 () Int)
(declare-fun call_rtp.ite9 () Int)
(declare-fun call_rtp.ite6 () Int)
(declare-fun call_rtp.ite37 () Int)
(declare-fun call_rtp.erreur () Bool)
(declare-fun _X3_ () Int)
(declare-fun call_rtp.ite40 () Int)
(declare-fun call_rtp.ite49 () Int)
(declare-fun call_rtp.ite17 () Int)
(declare-fun call_rtp._X9_ () Int)
(declare-fun _X1_ () Int)
(declare-fun call_rtp.ite24 () Int)
(declare-fun call_rtp.ite47 () Int)
(declare-fun call_rtp.ite39 () Int)
(declare-fun call_rtp.ite2 () Int)
(declare-fun call_rtp.ite38 () Int)
(declare-fun param_e10 () Bool)
(declare-fun call_rtp.ite14 () Int)
(declare-fun _X5_ () Int)
(declare-fun call_rtp.ite23 () Int)
(declare-fun call_rtp.ite27 () Int)
(declare-fun call_rtp.ite45 () Int)
(declare-fun param_e03 () Bool)
(declare-fun _X8_ () Int)
(declare-fun call_rtp.ite22 () Int)
(declare-fun _OK_ () Bool)
(define-fun .def_1568 () Bool (= call_Sofar.flby call_Sofar.Sofar))
(define-fun .def_1400 () Bool (not param_e02))
(define-fun .def_1188 () Bool (not param_e01))
(define-fun .def_1466 () Bool (and .def_1188 .def_1400))
(define-fun .def_1207 () Bool (not param_e03))
(define-fun .def_1467 () Bool (and .def_1207 .def_1466))
(define-fun .def_1426 () Bool (not param_e04))
(define-fun .def_1468 () Bool (and .def_1426 .def_1467))
(define-fun .def_1156 () Bool (not param_e05))
(define-fun .def_1469 () Bool (and .def_1156 .def_1468))
(define-fun .def_1150 () Bool (not param_e06))
(define-fun .def_1470 () Bool (and .def_1150 .def_1469))
(define-fun .def_1274 () Bool (not param_e07))
(define-fun .def_1471 () Bool (and .def_1274 .def_1470))
(define-fun .def_1332 () Bool (not param_e08))
(define-fun .def_1472 () Bool (and .def_1332 .def_1471))
(define-fun .def_1163 () Bool (not param_e09))
(define-fun .def_1473 () Bool (and .def_1163 .def_1472))
(define-fun .def_1172 () Bool (not param_e10))
(define-fun .def_1474 () Bool (and .def_1172 .def_1473))
(define-fun .def_1181 () Bool (not param_e11))
(define-fun .def_1475 () Bool (and .def_1181 .def_1474))
(define-fun .def_1195 () Bool (not param_e12))
(define-fun .def_1553 () Bool (and .def_1195 .def_1475))
(define-fun .def_1542 () Bool (and param_e01 .def_1400))
(define-fun .def_1543 () Bool (and .def_1207 .def_1542))
(define-fun .def_1544 () Bool (and .def_1426 .def_1543))
(define-fun .def_1545 () Bool (and .def_1156 .def_1544))
(define-fun .def_1546 () Bool (and .def_1150 .def_1545))
(define-fun .def_1547 () Bool (and .def_1274 .def_1546))
(define-fun .def_1548 () Bool (and .def_1332 .def_1547))
(define-fun .def_1549 () Bool (and .def_1163 .def_1548))
(define-fun .def_1550 () Bool (and .def_1172 .def_1549))
(define-fun .def_1551 () Bool (and .def_1181 .def_1550))
(define-fun .def_1552 () Bool (and .def_1195 .def_1551))
(define-fun .def_1554 () Bool (or .def_1552 .def_1553))
(define-fun .def_1531 () Bool (and .def_1188 param_e02))
(define-fun .def_1532 () Bool (and .def_1207 .def_1531))
(define-fun .def_1533 () Bool (and .def_1426 .def_1532))
(define-fun .def_1534 () Bool (and .def_1156 .def_1533))
(define-fun .def_1535 () Bool (and .def_1150 .def_1534))
(define-fun .def_1536 () Bool (and .def_1274 .def_1535))
(define-fun .def_1537 () Bool (and .def_1332 .def_1536))
(define-fun .def_1538 () Bool (and .def_1163 .def_1537))
(define-fun .def_1539 () Bool (and .def_1172 .def_1538))
(define-fun .def_1540 () Bool (and .def_1181 .def_1539))
(define-fun .def_1541 () Bool (and .def_1195 .def_1540))
(define-fun .def_1555 () Bool (or .def_1541 .def_1554))
(define-fun .def_1521 () Bool (and param_e03 .def_1466))
(define-fun .def_1522 () Bool (and .def_1426 .def_1521))
(define-fun .def_1523 () Bool (and .def_1156 .def_1522))
(define-fun .def_1524 () Bool (and .def_1150 .def_1523))
(define-fun .def_1525 () Bool (and .def_1274 .def_1524))
(define-fun .def_1526 () Bool (and .def_1332 .def_1525))
(define-fun .def_1527 () Bool (and .def_1163 .def_1526))
(define-fun .def_1528 () Bool (and .def_1172 .def_1527))
(define-fun .def_1529 () Bool (and .def_1181 .def_1528))
(define-fun .def_1530 () Bool (and .def_1195 .def_1529))
(define-fun .def_1556 () Bool (or .def_1530 .def_1555))
(define-fun .def_1512 () Bool (and param_e04 .def_1467))
(define-fun .def_1513 () Bool (and .def_1156 .def_1512))
(define-fun .def_1514 () Bool (and .def_1150 .def_1513))
(define-fun .def_1515 () Bool (and .def_1274 .def_1514))
(define-fun .def_1516 () Bool (and .def_1332 .def_1515))
(define-fun .def_1517 () Bool (and .def_1163 .def_1516))
(define-fun .def_1518 () Bool (and .def_1172 .def_1517))
(define-fun .def_1519 () Bool (and .def_1181 .def_1518))
(define-fun .def_1520 () Bool (and .def_1195 .def_1519))
(define-fun .def_1557 () Bool (or .def_1520 .def_1556))
(define-fun .def_1504 () Bool (and param_e05 .def_1468))
(define-fun .def_1505 () Bool (and .def_1150 .def_1504))
(define-fun .def_1506 () Bool (and .def_1274 .def_1505))
(define-fun .def_1507 () Bool (and .def_1332 .def_1506))
(define-fun .def_1508 () Bool (and .def_1163 .def_1507))
(define-fun .def_1509 () Bool (and .def_1172 .def_1508))
(define-fun .def_1510 () Bool (and .def_1181 .def_1509))
(define-fun .def_1511 () Bool (and .def_1195 .def_1510))
(define-fun .def_1558 () Bool (or .def_1511 .def_1557))
(define-fun .def_1497 () Bool (and param_e06 .def_1469))
(define-fun .def_1498 () Bool (and .def_1274 .def_1497))
(define-fun .def_1499 () Bool (and .def_1332 .def_1498))
(define-fun .def_1500 () Bool (and .def_1163 .def_1499))
(define-fun .def_1501 () Bool (and .def_1172 .def_1500))
(define-fun .def_1502 () Bool (and .def_1181 .def_1501))
(define-fun .def_1503 () Bool (and .def_1195 .def_1502))
(define-fun .def_1559 () Bool (or .def_1503 .def_1558))
(define-fun .def_1491 () Bool (and param_e07 .def_1470))
(define-fun .def_1492 () Bool (and .def_1332 .def_1491))
(define-fun .def_1493 () Bool (and .def_1163 .def_1492))
(define-fun .def_1494 () Bool (and .def_1172 .def_1493))
(define-fun .def_1495 () Bool (and .def_1181 .def_1494))
(define-fun .def_1496 () Bool (and .def_1195 .def_1495))
(define-fun .def_1560 () Bool (or .def_1496 .def_1559))
(define-fun .def_1486 () Bool (and param_e08 .def_1471))
(define-fun .def_1487 () Bool (and .def_1163 .def_1486))
(define-fun .def_1488 () Bool (and .def_1172 .def_1487))
(define-fun .def_1489 () Bool (and .def_1181 .def_1488))
(define-fun .def_1490 () Bool (and .def_1195 .def_1489))
(define-fun .def_1561 () Bool (or .def_1490 .def_1560))
(define-fun .def_1482 () Bool (and param_e09 .def_1472))
(define-fun .def_1483 () Bool (and .def_1172 .def_1482))
(define-fun .def_1484 () Bool (and .def_1181 .def_1483))
(define-fun .def_1485 () Bool (and .def_1195 .def_1484))
(define-fun .def_1562 () Bool (or .def_1485 .def_1561))
(define-fun .def_1479 () Bool (and param_e10 .def_1473))
(define-fun .def_1480 () Bool (and .def_1181 .def_1479))
(define-fun .def_1481 () Bool (and .def_1195 .def_1480))
(define-fun .def_1563 () Bool (or .def_1481 .def_1562))
(define-fun .def_1477 () Bool (and param_e11 .def_1474))
(define-fun .def_1478 () Bool (and .def_1195 .def_1477))
(define-fun .def_1564 () Bool (or .def_1478 .def_1563))
(define-fun .def_1476 () Bool (and param_e12 .def_1475))
(define-fun .def_1565 () Bool (or .def_1476 .def_1564))
(define-fun .def_1566 () Bool (= call_excludes12.excludes .def_1565))
(define-fun .def_1464 () Bool (= call_rtp.erreur call_rtp.ite))
(define-fun .def_1462 () Bool (= call_rtp.flby9 call_rtp._X9_))
(define-fun .def_1460 () Bool (= call_rtp.flby8 call_rtp._X8_))
(define-fun .def_1458 () Bool (= call_rtp.flby7 call_rtp._X7_))
(define-fun .def_1456 () Bool (= call_rtp.flby6 call_rtp._X6_))
(define-fun .def_1454 () Bool (= call_rtp.flby5 call_rtp._X5_))
(define-fun .def_1452 () Bool (= call_rtp.flby4 call_rtp._X4_))
(define-fun .def_1450 () Bool (= call_rtp.flby3 call_rtp._X3_))
(define-fun .def_1448 () Bool (= call_rtp.flby2 call_rtp._X2_))
(define-fun .def_1445 () Bool (= call_rtp.flby call_rtp._X1_))
(define-fun .def_1440 () Bool (<= 2 call_rtp._X1_))
(define-fun .def_1442 () Bool (not .def_1440))
(define-fun .def_1443 () Bool (or call_rtp.ite .def_1442))
(define-fun .def_1439 () Bool (not call_rtp.ite))
(define-fun .def_1441 () Bool (or .def_1439 .def_1440))
(define-fun .def_1444 () Bool (and .def_1441 .def_1443))
(define-fun .def_1446 () Bool (and .def_1444 .def_1445))
(define-fun .def_1434 () Bool (= call_rtp.ite22 call_rtp.ite23))
(define-fun .def_1435 () Bool (or param_e04 .def_1434))
(define-fun .def_1431 () Bool (= call_rtp.ite20 call_rtp.ite23))
(define-fun .def_1432 () Bool (or .def_1426 .def_1431))
(define-fun .def_1425 () Bool (= call_rtp.ite18 call_rtp.ite15))
(define-fun .def_1427 () Bool (or .def_1425 .def_1426))
(define-fun .def_1421 () Bool (= call_rtp.ite17 call_rtp.ite18))
(define-fun .def_1423 () Bool (or .def_1421 param_e04))
(define-fun .def_1428 () Bool (and .def_1423 .def_1427))
(define-fun .def_1433 () Bool (and .def_1428 .def_1432))
(define-fun .def_1436 () Bool (and .def_1433 .def_1435))
(define-fun .def_1417 () Bool (= call_rtp.ite19 call_rtp.ite14))
(define-fun .def_1418 () Bool (or .def_1207 .def_1417))
(define-fun .def_1414 () Bool (= call_rtp.ite19 call_rtp.ite18))
(define-fun .def_1415 () Bool (or param_e03 .def_1414))
(define-fun .def_1419 () Bool (and .def_1415 .def_1418))
(define-fun .def_1408 () Bool (= call_rtp.ite12 call_rtp.ite13))
(define-fun .def_1409 () Bool (or param_e02 .def_1408))
(define-fun .def_1405 () Bool (= call_rtp.ite10 call_rtp.ite13))
(define-fun .def_1406 () Bool (or .def_1400 .def_1405))
(define-fun .def_1399 () Bool (= call_rtp.ite8 call_rtp.ite5))
(define-fun .def_1401 () Bool (or .def_1399 .def_1400))
(define-fun .def_1395 () Bool (= call_rtp.ite7 call_rtp.ite8))
(define-fun .def_1397 () Bool (or .def_1395 param_e02))
(define-fun .def_1402 () Bool (and .def_1397 .def_1401))
(define-fun .def_1407 () Bool (and .def_1402 .def_1406))
(define-fun .def_1410 () Bool (and .def_1407 .def_1409))
(define-fun .def_1391 () Bool (= call_rtp.ite9 call_rtp.ite4))
(define-fun .def_1392 () Bool (or .def_1188 .def_1391))
(define-fun .def_1388 () Bool (= call_rtp.ite9 call_rtp.ite8))
(define-fun .def_1389 () Bool (or param_e01 .def_1388))
(define-fun .def_1393 () Bool (and .def_1389 .def_1392))
(define-fun .def_1382 () Bool (= call_rtp.ite46 call_rtp.ite43))
(define-fun .def_1383 () Bool (or .def_1181 .def_1382))
(define-fun .def_1379 () Bool (= call_rtp.ite45 call_rtp.ite46))
(define-fun .def_1380 () Bool (or param_e11 .def_1379))
(define-fun .def_1384 () Bool (and .def_1380 .def_1383))
(define-fun .def_1375 () Bool (= call_rtp.ite47 call_rtp.ite42))
(define-fun .def_1376 () Bool (or .def_1172 .def_1375))
(define-fun .def_1372 () Bool (= call_rtp.ite47 call_rtp.ite46))
(define-fun .def_1373 () Bool (or param_e10 .def_1372))
(define-fun .def_1377 () Bool (and .def_1373 .def_1376))
(define-fun .def_1367 () Bool (= call_rtp.ite39 call_rtp.ite36))
(define-fun .def_1368 () Bool (or .def_1163 .def_1367))
(define-fun .def_1364 () Bool (= call_rtp.ite38 call_rtp.ite39))
(define-fun .def_1365 () Bool (or param_e09 .def_1364))
(define-fun .def_1369 () Bool (and .def_1365 .def_1368))
(define-fun .def_1361 () Bool (= env call_Sofar.Sofar))
(define-fun .def_1358 () Bool (= erreur call_rtp.erreur))
(define-fun .def_1351 () Bool (<= 2 _X2_))
(define-fun .def_1352 () Bool (not .def_1351))
(define-fun .def_1323 () Bool (not env))
(define-fun .def_1353 () Bool (or .def_1323 .def_1352))
(define-fun .def_1354 () Bool (= _R4_ .def_1353))
(define-fun .def_1348 () Bool (or flby2 .def_1323))
(define-fun .def_1349 () Bool (= _R3_ .def_1348))
(define-fun .def_1344 () Bool (<= 0 _X2_))
(define-fun .def_1345 () Bool (or .def_1323 .def_1344))
(define-fun .def_1346 () Bool (= _R2_ .def_1345))
(define-fun .def_1340 () Bool (= call_rtp.ite34 call_rtp.ite35))
(define-fun .def_1341 () Bool (or param_e08 .def_1340))
(define-fun .def_1337 () Bool (= call_rtp.ite32 call_rtp.ite35))
(define-fun .def_1338 () Bool (or .def_1332 .def_1337))
(define-fun .def_1331 () Bool (= call_rtp.ite29 call_rtp.ite26))
(define-fun .def_1333 () Bool (or .def_1331 .def_1332))
(define-fun .def_1327 () Bool (= call_rtp.ite28 call_rtp.ite29))
(define-fun .def_1329 () Bool (or .def_1327 param_e08))
(define-fun .def_1334 () Bool (and .def_1329 .def_1333))
(define-fun .def_1339 () Bool (and .def_1334 .def_1338))
(define-fun .def_1342 () Bool (and .def_1339 .def_1341))
(define-fun .def_1324 () Bool (or flby .def_1323))
(define-fun .def_1325 () Bool (= _R1_ .def_1324))
(define-fun .def_1320 () Bool (= _X9_ call_rtp._X9_))
(define-fun .def_1316 () Bool (= _X8_ call_rtp._X8_))
(define-fun .def_1312 () Bool (= _X7_ call_rtp._X7_))
(define-fun .def_1308 () Bool (= _X6_ call_rtp._X6_))
(define-fun .def_1304 () Bool (= _X5_ call_rtp._X5_))
(define-fun .def_1300 () Bool (= _X4_ call_rtp._X4_))
(define-fun .def_1296 () Bool (= _X3_ call_rtp._X3_))
(define-fun .def_1292 () Bool (= _X2_ call_rtp._X2_))
(define-fun .def_1288 () Bool (= _X1_ call_rtp._X1_))
(define-fun .def_1282 () Bool (= call_rtp.ite30 call_rtp.ite29))
(define-fun .def_1283 () Bool (or param_e07 .def_1282))
(define-fun .def_1278 () Bool (= call_rtp.ite30 call_rtp.ite25))
(define-fun .def_1279 () Bool (or .def_1274 .def_1278))
(define-fun .def_1273 () Bool (= call_rtp.ite48 call_rtp.ite41))
(define-fun .def_1275 () Bool (or .def_1273 .def_1274))
(define-fun .def_1269 () Bool (= call_rtp.ite48 call_rtp.ite47))
(define-fun .def_1271 () Bool (or .def_1269 param_e07))
(define-fun .def_1276 () Bool (and .def_1271 .def_1275))
(define-fun .def_1280 () Bool (and .def_1276 .def_1279))
(define-fun .def_1284 () Bool (and .def_1280 .def_1283))
(define-fun .def_1261 () Bool (and _R1_ _R2_))
(define-fun .def_1263 () Bool (and .def_1261 _R3_))
(define-fun .def_1265 () Bool (and .def_1263 _R4_))
(define-fun .def_1266 () Bool (= _OK_ .def_1265))
(define-fun .def_1254 () Bool (= call_rtp.ite49 call_rtp.ite40))
(define-fun .def_1255 () Bool (or .def_1156 .def_1254))
(define-fun .def_1251 () Bool (= call_rtp.ite49 call_rtp.ite48))
(define-fun .def_1252 () Bool (or param_e05 .def_1251))
(define-fun .def_1256 () Bool (and .def_1252 .def_1255))
(define-fun .def_1246 () Bool (= call_rtp.ite31 call_rtp.ite24))
(define-fun .def_1247 () Bool (or .def_1150 .def_1246))
(define-fun .def_1243 () Bool (= call_rtp.ite31 call_rtp.ite30))
(define-fun .def_1244 () Bool (or param_e06 .def_1243))
(define-fun .def_1248 () Bool (and .def_1244 .def_1247))
(define-fun .def_1257 () Bool (and .def_1248 .def_1256))
(define-fun .def_1267 () Bool (and .def_1257 .def_1266))
(define-fun .def_1285 () Bool (and .def_1267 .def_1284))
(define-fun .def_1289 () Bool (and .def_1285 .def_1288))
(define-fun .def_1293 () Bool (and .def_1289 .def_1292))
(define-fun .def_1297 () Bool (and .def_1293 .def_1296))
(define-fun .def_1301 () Bool (and .def_1297 .def_1300))
(define-fun .def_1305 () Bool (and .def_1301 .def_1304))
(define-fun .def_1309 () Bool (and .def_1305 .def_1308))
(define-fun .def_1313 () Bool (and .def_1309 .def_1312))
(define-fun .def_1317 () Bool (and .def_1313 .def_1316))
(define-fun .def_1321 () Bool (and .def_1317 .def_1320))
(define-fun .def_1326 () Bool (and .def_1321 .def_1325))
(define-fun .def_1343 () Bool (and .def_1326 .def_1342))
(define-fun .def_1347 () Bool (and .def_1343 .def_1346))
(define-fun .def_1350 () Bool (and .def_1347 .def_1349))
(define-fun .def_1355 () Bool (and .def_1350 .def_1354))
(define-fun .def_1359 () Bool (and .def_1355 .def_1358))
(define-fun .def_1362 () Bool (and .def_1359 .def_1361))
(define-fun .def_1370 () Bool (and .def_1362 .def_1369))
(define-fun .def_1378 () Bool (and .def_1370 .def_1377))
(define-fun .def_1385 () Bool (and .def_1378 .def_1384))
(define-fun .def_1394 () Bool (and .def_1385 .def_1393))
(define-fun .def_1411 () Bool (and .def_1394 .def_1410))
(define-fun .def_1420 () Bool (and .def_1411 .def_1419))
(define-fun .def_1437 () Bool (and .def_1420 .def_1436))
(define-fun .def_1447 () Bool (and .def_1437 .def_1446))
(define-fun .def_1449 () Bool (and .def_1447 .def_1448))
(define-fun .def_1451 () Bool (and .def_1449 .def_1450))
(define-fun .def_1453 () Bool (and .def_1451 .def_1452))
(define-fun .def_1455 () Bool (and .def_1453 .def_1454))
(define-fun .def_1457 () Bool (and .def_1455 .def_1456))
(define-fun .def_1459 () Bool (and .def_1457 .def_1458))
(define-fun .def_1461 () Bool (and .def_1459 .def_1460))
(define-fun .def_1463 () Bool (and .def_1461 .def_1462))
(define-fun .def_1465 () Bool (and .def_1463 .def_1464))
(define-fun .def_1567 () Bool (and .def_1465 .def_1566))
(define-fun .def_1569 () Bool (and .def_1567 .def_1568))
(define-fun .def_1239 () Bool (= call_excludes12.excludes call_Sofar.flby))
(define-fun .def_1235 () Bool (= call_rtp.flby7 0))
(define-fun .def_1232 () Bool (= call_rtp.flby6 0))
(define-fun .def_1229 () Bool (= call_rtp.flby5 0))
(define-fun .def_1226 () Bool (= call_rtp.flby4 0))
(define-fun .def_1223 () Bool (= call_rtp.flby3 0))
(define-fun .def_1220 () Bool (= call_rtp.flby2 0))
(define-fun .def_1217 () Bool (= call_rtp.flby 1))
(define-fun .def_1214 () Bool (= call_rtp.flby9 0))
(define-fun .def_1211 () Bool (= call_rtp.flby8 0))
(define-fun .def_1205 () Bool (= call_rtp.ite11 call_rtp.ite12))
(define-fun .def_1208 () Bool (or .def_1205 .def_1207))
(define-fun .def_1199 () Bool (= call_rtp.ite44 call_rtp.ite45))
(define-fun .def_1200 () Bool (or .def_1195 .def_1199))
(define-fun .def_1193 () Bool (= call_rtp.ite6 call_rtp.ite7))
(define-fun .def_1196 () Bool (or .def_1193 .def_1195))
(define-fun .def_1201 () Bool (and .def_1196 .def_1200))
(define-fun .def_1186 () Bool (= call_rtp.ite3 call_rtp.ite2))
(define-fun .def_1189 () Bool (or .def_1186 .def_1188))
(define-fun .def_1179 () Bool (= call_rtp.ite37 call_rtp.ite38))
(define-fun .def_1182 () Bool (or .def_1179 .def_1181))
(define-fun .def_1170 () Bool (= call_rtp.ite33 call_rtp.ite34))
(define-fun .def_1173 () Bool (or .def_1170 .def_1172))
(define-fun .def_1161 () Bool (= call_rtp.ite27 call_rtp.ite28))
(define-fun .def_1164 () Bool (or .def_1161 .def_1163))
(define-fun .def_1154 () Bool (= call_rtp.ite16 call_rtp.ite17))
(define-fun .def_1157 () Bool (or .def_1154 .def_1156))
(define-fun .def_1148 () Bool (= call_rtp.ite21 call_rtp.ite22))
(define-fun .def_1151 () Bool (or .def_1148 .def_1150))
(define-fun .def_1158 () Bool (and .def_1151 .def_1157))
(define-fun .def_1165 () Bool (and .def_1158 .def_1164))
(define-fun .def_1167 () Bool (and .def_1165 flby))
(define-fun .def_1174 () Bool (and .def_1167 .def_1173))
(define-fun .def_1176 () Bool (and .def_1174 flby2))
(define-fun .def_1183 () Bool (and .def_1176 .def_1182))
(define-fun .def_1190 () Bool (and .def_1183 .def_1189))
(define-fun .def_1202 () Bool (and .def_1190 .def_1201))
(define-fun .def_1209 () Bool (and .def_1202 .def_1208))
(define-fun .def_1212 () Bool (and .def_1209 .def_1211))
(define-fun .def_1215 () Bool (and .def_1212 .def_1214))
(define-fun .def_1218 () Bool (and .def_1215 .def_1217))
(define-fun .def_1221 () Bool (and .def_1218 .def_1220))
(define-fun .def_1224 () Bool (and .def_1221 .def_1223))
(define-fun .def_1227 () Bool (and .def_1224 .def_1226))
(define-fun .def_1230 () Bool (and .def_1227 .def_1229))
(define-fun .def_1233 () Bool (and .def_1230 .def_1232))
(define-fun .def_1236 () Bool (and .def_1233 .def_1235))
(define-fun .def_1240 () Bool (and .def_1236 .def_1239))
(define-fun .def_1570 () Bool (and .def_1240 .def_1569))
(assert .def_1570)
